(declare-const c Real)
(declare-const d Real)
(declare-const a Real)
(declare-const b Real)
(assert (= (+ a (+ c (+ b d))) 1))
(assert (and (>= a b) (and (>= b c) (>= c d))))
(assert (and (< 0 a) (and (< 0 b) (and (< 0 c) (< 0 d)))))
(assert (not (>= (* (* (+ a (+ (* 3 c) (+ (* 2 b) (* 4 d)))) (^ c c)) (* (^ a a) (* (^ b b) (^ d d)))) 1)))
(check-sat)
(get-model)
(exit)
